circuit_heights=[3, 4, 5, 6, 7, 8, 9, 10, 11, 12, 19, 20, 21, 3, 4, 6, 7, 8, 14, 19, 20];
circuit_widths=[3, 3, 3, 3, 3, 3, 3, 3, 3, 3, 3, 3, 3, 4, 4, 4, 4, 4, 4, 4, 4];
max_height=216;
min_height=27;
n_circuits=21;
plate_width=27;
